p cnf 585 1892
a 2 3 4 5 6 7 8 12 17 19 21 22 23 26 28 30 31 33 35 37 38 40 42 44 46 48 50 52 55 56 63 65 69 73 75 77 81 88 93 98 101 102 109 111 115 117 119 121 123 0
e 1 9 10 11 13 14 15 16 18 20 24 25 27 29 32 34 36 39 41 43 45 47 49 51 53 54 57 58 59 60 61 62 64 66 67 68 70 71 72 74 76 78 79 80 82 83 84 85 86 87 89 90 91 92 94 95 96 97 99 100 103 104 105 106 107 108 110 112 113 114 116 118 120 122 124 125 126 127 128 129 130 131 132 133 134 135 136 137 138 139 140 141 142 143 144 145 146 147 148 149 150 151 152 153 154 155 156 157 158 159 160 161 162 163 164 165 166 167 168 169 170 171 172 173 174 175 176 177 178 179 180 181 182 183 184 185 186 187 188 189 190 191 192 193 194 195 196 197 198 199 200 201 202 203 204 205 206 207 208 209 210 211 212 213 214 215 216 217 218 219 220 221 222 223 224 225 226 227 228 229 230 231 232 233 234 235 236 237 238 239 240 241 242 243 244 245 246 247 248 249 250 251 252 253 254 255 256 257 258 259 260 261 262 263 264 265 266 267 268 269 270 271 272 273 274 275 276 277 278 279 280 281 282 283 284 285 286 287 288 289 290 291 292 293 294 295 296 297 298 299 300 301 302 303 304 305 306 307 308 309 310 311 312 313 314 315 316 317 318 319 320 321 322 323 324 325 326 327 328 329 330 331 332 333 334 335 336 337 338 339 340 341 342 343 344 345 346 347 348 349 350 351 352 353 354 355 356 357 358 359 360 361 362 363 364 365 366 367 368 369 370 371 372 373 374 375 376 377 378 379 380 381 382 383 384 385 386 387 388 389 390 391 392 393 394 395 396 397 398 399 400 401 402 403 404 405 406 407 408 409 410 411 412 413 414 415 416 417 418 419 420 421 422 423 424 425 426 427 428 429 430 431 432 433 434 435 436 437 438 439 440 441 442 443 444 445 446 447 448 449 450 451 452 453 454 455 456 457 458 459 460 461 462 463 464 465 466 467 468 469 470 471 472 473 474 475 476 477 478 479 480 481 482 483 484 485 486 487 488 489 490 491 492 493 494 495 496 497 498 499 500 501 502 503 504 505 506 507 508 509 510 511 512 513 514 515 516 517 518 519 520 521 522 523 524 525 526 527 528 529 530 531 532 533 534 535 536 537 538 539 540 541 542 543 544 545 546 547 548 549 550 551 552 553 554 555 556 557 558 559 560 561 562 563 564 565 566 567 568 569 570 571 572 573 574 575 576 577 578 579 580 581 582 583 584 585 0
1 0
7 -9 0
8 -9 0
-7 -8 9 0
7 -10 0
-8 -10 0
-7 8 10 0
7 11 0
-9 11 0
-10 11 0
-7 9 10 -11 0
-12 13 0
12 13 0
6 -14 0
11 -14 0
13 -14 0
-6 -11 -13 14 0
-6 -15 0
11 -15 0
6 -11 15 0
-14 16 0
-15 16 0
14 15 -16 0
-17 18 0
17 18 0
-19 20 0
19 20 0
22 -24 0
-23 -24 0
-22 23 24 0
22 25 0
-24 25 0
-22 24 -25 0
-26 27 0
26 27 0
27 -29 0
28 -29 0
-27 -28 29 0
-31 32 0
31 32 0
32 -34 0
-33 -34 0
-32 33 34 0
32 -36 0
33 -36 0
35 -36 0
-32 -33 -35 36 0
32 -39 0
33 -39 0
-35 -39 0
37 -39 0
38 -39 0
-32 -33 35 -37 -38 39 0
32 -41 0
33 -41 0
-35 -41 0
37 -41 0
-38 -41 0
-40 -41 0
-32 -33 35 -37 38 40 41 0
32 -43 0
33 -43 0
-35 -43 0
-37 -43 0
-42 -43 0
-32 -33 35 37 42 43 0
32 -45 0
33 -45 0
-35 -45 0
-37 -45 0
42 -45 0
44 -45 0
-32 -33 35 37 -42 -44 45 0
32 -47 0
33 -47 0
-35 -47 0
37 -47 0
-38 -47 0
40 -47 0
46 -47 0
-32 -33 35 -37 38 -40 -46 47 0
32 -49 0
33 -49 0
-35 -49 0
37 -49 0
-38 -49 0
40 -49 0
-46 -49 0
48 -49 0
-32 -33 35 -37 38 -40 46 -48 49 0
-50 51 0
50 51 0
32 -53 0
33 -53 0
-35 -53 0
-37 -53 0
42 -53 0
-44 -53 0
51 -53 0
52 -53 0
-32 -33 35 37 -42 44 -51 -52 53 0
32 -54 0
33 -54 0
-35 -54 0
-37 -54 0
42 -54 0
-44 -54 0
51 -54 0
-52 -54 0
-32 -33 35 37 -42 44 -51 52 54 0
55 -57 0
56 -57 0
-55 -56 57 0
55 -58 0
-56 -58 0
-55 56 58 0
55 59 0
-57 59 0
-58 59 0
-55 57 58 -59 0
32 -60 0
33 -60 0
-35 -60 0
37 -60 0
-38 -60 0
40 -60 0
-46 -60 0
-48 -60 0
59 -60 0
-32 -33 35 -37 38 -40 46 48 -59 60 0
-34 61 0
-36 61 0
-39 61 0
-41 61 0
-43 61 0
-45 61 0
-47 61 0
-49 61 0
-53 61 0
-54 61 0
-60 61 0
34 36 39 41 43 45 47 49 53 54 60 -61 0
27 -62 0
-28 -62 0
-30 -62 0
61 -62 0
-27 28 30 -61 62 0
27 -64 0
-28 -64 0
30 -64 0
-63 -64 0
-27 28 -30 63 64 0
27 -66 0
-28 -66 0
30 -66 0
63 -66 0
-65 -66 0
-27 28 -30 -63 65 66 0
27 -67 0
-28 -67 0
30 -67 0
63 -67 0
65 -67 0
-27 28 -30 -63 -65 67 0
-62 68 0
-64 68 0
-66 68 0
-67 68 0
62 64 66 67 -68 0
68 -70 0
69 -70 0
-68 -69 70 0
68 -71 0
-69 -71 0
-68 69 71 0
-29 72 0
-70 72 0
-71 72 0
29 70 71 -72 0
-73 74 0
73 74 0
21 -76 0
25 -76 0
72 -76 0
74 -76 0
75 -76 0
-21 -25 -72 -74 -75 76 0
-77 78 0
77 78 0
21 -79 0
25 -79 0
72 -79 0
74 -79 0
-75 -79 0
78 -79 0
-21 -25 -72 -74 75 -78 79 0
-76 80 0
-79 80 0
76 79 -80 0
80 -82 0
81 -82 0
-80 -81 82 0
80 -83 0
-81 -83 0
-80 81 83 0
21 84 0
-82 84 0
-83 84 0
-21 82 83 -84 0
5 -85 0
16 -85 0
18 -85 0
20 -85 0
84 -85 0
-5 -16 -18 -20 -84 85 0
-5 -86 0
16 -86 0
18 -86 0
20 -86 0
5 -16 -18 -20 86 0
-85 87 0
-86 87 0
85 86 -87 0
88 89 0
-88 89 0
4 -90 0
87 -90 0
89 -90 0
-4 -87 -89 90 0
-4 -91 0
87 -91 0
4 -87 91 0
-90 92 0
-91 92 0
90 91 -92 0
93 94 0
-93 94 0
3 -95 0
92 -95 0
94 -95 0
-3 -92 -94 95 0
-3 -96 0
92 -96 0
3 -92 96 0
-95 97 0
-96 97 0
95 96 -97 0
98 99 0
-98 99 0
2 -100 0
97 -100 0
99 -100 0
-2 -97 -99 100 0
102 103 0
-102 103 0
101 -104 0
97 -104 0
103 -104 0
-101 -97 -103 104 0
-101 -105 0
97 -105 0
101 -97 105 0
-104 106 0
-105 106 0
104 105 -106 0
-2 -107 0
106 -107 0
2 -106 107 0
-100 108 0
-107 108 0
100 107 -108 0
-109 110 0
109 110 0
110 -112 0
111 -112 0
-110 -111 112 0
110 -113 0
-111 -113 0
-110 111 113 0
-112 114 0
-113 114 0
112 113 -114 0
114 -116 0
115 -116 0
-114 -115 116 0
114 -118 0
-115 -118 0
117 -118 0
-114 115 -117 118 0
114 -120 0
-115 -120 0
-117 -120 0
119 -120 0
-114 115 117 -119 120 0
114 -122 0
-115 -122 0
-117 -122 0
-119 -122 0
121 -122 0
-114 115 117 119 -121 122 0
114 -124 0
-115 -124 0
-117 -124 0
-119 -124 0
-121 -124 0
123 -124 0
-114 115 117 119 121 -123 124 0
-116 125 0
-118 125 0
-120 125 0
-122 125 0
-124 125 0
116 118 120 122 124 -125 0
108 -126 0
125 -126 0
-108 -125 126 0
-12 127 0
12 127 0
6 -128 0
127 -128 0
-6 -127 128 0
-128 129 0
6 129 0
128 -6 -129 0
129 -130 0
-21 -130 0
-129 21 130 0
129 -131 0
27 -131 0
28 -131 0
-129 -27 -28 131 0
129 -132 0
27 -132 0
-28 -132 0
30 -132 0
63 -132 0
-65 -132 0
-129 -27 28 -30 -63 65 132 0
129 -133 0
27 -133 0
-28 -133 0
30 -133 0
63 -133 0
65 -133 0
-129 -27 28 -30 -63 -65 133 0
129 -134 0
27 -134 0
-28 -134 0
30 -134 0
-63 -134 0
-129 -27 28 -30 63 134 0
129 -135 0
31 -135 0
-129 -31 135 0
129 -136 0
-31 -136 0
-129 31 136 0
-135 137 0
-136 137 0
135 136 -137 0
-34 138 0
-36 138 0
-39 138 0
-41 138 0
-43 138 0
-45 138 0
-47 138 0
-49 138 0
34 36 39 41 43 45 47 49 -138 0
137 -139 0
138 -139 0
-137 -138 139 0
137 -140 0
32 -140 0
33 -140 0
-35 -140 0
37 -140 0
-38 -140 0
40 -140 0
-46 -140 0
-48 -140 0
59 -140 0
-137 -32 -33 35 -37 38 -40 46 48 -59 140 0
-53 141 0
-54 141 0
53 54 -141 0
137 -142 0
141 -142 0
-137 -141 142 0
-139 143 0
-140 143 0
-142 143 0
139 140 142 -143 0
143 -144 0
27 -144 0
-28 -144 0
-30 -144 0
61 -144 0
-143 -27 28 30 -61 144 0
-132 145 0
-133 145 0
-134 145 0
-144 145 0
132 133 134 144 -145 0
145 -146 0
68 -146 0
69 -146 0
-145 -68 -69 146 0
145 -147 0
68 -147 0
-69 -147 0
-145 -68 69 147 0
-131 148 0
-146 148 0
-147 148 0
131 146 147 -148 0
148 -149 0
21 -149 0
25 -149 0
72 -149 0
74 -149 0
75 -149 0
-148 -21 -25 -72 -74 -75 149 0
148 -150 0
21 -150 0
25 -150 0
72 -150 0
74 -150 0
-75 -150 0
78 -150 0
-148 -21 -25 -72 -74 75 -78 150 0
-149 151 0
-150 151 0
149 150 -151 0
-82 152 0
-83 152 0
82 83 -152 0
151 -153 0
152 -153 0
-151 -152 153 0
-130 154 0
-153 154 0
130 153 -154 0
5 -155 0
154 -155 0
-5 -154 155 0
-5 -156 0
129 -156 0
5 -129 156 0
-155 157 0
-156 157 0
155 156 -157 0
157 -158 0
-88 -158 0
-157 88 158 0
157 -159 0
88 -159 0
-157 -88 159 0
-158 160 0
-159 160 0
158 159 -160 0
4 -161 0
160 -161 0
-4 -160 161 0
-4 -162 0
157 -162 0
4 -157 162 0
-161 163 0
-162 163 0
161 162 -163 0
163 -164 0
-93 -164 0
-163 93 164 0
163 -165 0
93 -165 0
-163 -93 165 0
-164 166 0
-165 166 0
164 165 -166 0
3 -167 0
166 -167 0
-3 -166 167 0
-3 -168 0
163 -168 0
3 -163 168 0
-167 169 0
-168 169 0
167 168 -169 0
169 -170 0
-98 -170 0
-169 98 170 0
169 -171 0
98 -171 0
-169 -98 171 0
-170 172 0
-171 172 0
170 171 -172 0
2 -173 0
172 -173 0
-2 -172 173 0
169 -174 0
-102 -174 0
-169 102 174 0
169 -175 0
102 -175 0
-169 -102 175 0
-174 176 0
-175 176 0
174 175 -176 0
101 -177 0
176 -177 0
-101 -176 177 0
-101 -178 0
169 -178 0
101 -169 178 0
-177 179 0
-178 179 0
177 178 -179 0
-2 -180 0
179 -180 0
2 -179 180 0
-173 181 0
-180 181 0
173 180 -181 0
181 -182 0
114 -182 0
115 -182 0
-181 -114 -115 182 0
-118 183 0
-120 183 0
-122 183 0
-124 183 0
118 120 122 124 -183 0
181 -184 0
183 -184 0
-181 -183 184 0
-182 185 0
-184 185 0
182 184 -185 0
-12 186 0
12 186 0
6 -187 0
186 -187 0
-6 -186 187 0
-187 188 0
6 188 0
187 -6 -188 0
188 -189 0
-21 -189 0
-188 21 189 0
188 -190 0
27 -190 0
28 -190 0
-188 -27 -28 190 0
188 -191 0
27 -191 0
-28 -191 0
30 -191 0
63 -191 0
-65 -191 0
-188 -27 28 -30 -63 65 191 0
188 -192 0
27 -192 0
-28 -192 0
30 -192 0
63 -192 0
65 -192 0
-188 -27 28 -30 -63 -65 192 0
188 -193 0
27 -193 0
-28 -193 0
30 -193 0
-63 -193 0
-188 -27 28 -30 63 193 0
188 -194 0
31 -194 0
-188 -31 194 0
188 -195 0
-31 -195 0
-188 31 195 0
-194 196 0
-195 196 0
194 195 -196 0
-34 197 0
-36 197 0
-39 197 0
-41 197 0
-43 197 0
-45 197 0
-47 197 0
-49 197 0
34 36 39 41 43 45 47 49 -197 0
196 -198 0
197 -198 0
-196 -197 198 0
196 -199 0
32 -199 0
33 -199 0
-35 -199 0
37 -199 0
-38 -199 0
40 -199 0
-46 -199 0
-48 -199 0
59 -199 0
-196 -32 -33 35 -37 38 -40 46 48 -59 199 0
196 -200 0
141 -200 0
-196 -141 200 0
-198 201 0
-199 201 0
-200 201 0
198 199 200 -201 0
201 -202 0
27 -202 0
-28 -202 0
-30 -202 0
61 -202 0
-201 -27 28 30 -61 202 0
-191 203 0
-192 203 0
-193 203 0
-202 203 0
191 192 193 202 -203 0
203 -204 0
68 -204 0
69 -204 0
-203 -68 -69 204 0
203 -205 0
68 -205 0
-69 -205 0
-203 -68 69 205 0
-190 206 0
-204 206 0
-205 206 0
190 204 205 -206 0
206 -207 0
21 -207 0
25 -207 0
72 -207 0
74 -207 0
75 -207 0
-206 -21 -25 -72 -74 -75 207 0
206 -208 0
21 -208 0
25 -208 0
72 -208 0
74 -208 0
-75 -208 0
78 -208 0
-206 -21 -25 -72 -74 75 -78 208 0
-207 209 0
-208 209 0
207 208 -209 0
209 -210 0
152 -210 0
-209 -152 210 0
-189 211 0
-210 211 0
189 210 -211 0
5 -212 0
211 -212 0
-5 -211 212 0
-5 -213 0
188 -213 0
5 -188 213 0
-212 214 0
-213 214 0
212 213 -214 0
214 -215 0
-88 -215 0
-214 88 215 0
214 -216 0
88 -216 0
-214 -88 216 0
-215 217 0
-216 217 0
215 216 -217 0
4 -218 0
217 -218 0
-4 -217 218 0
-4 -219 0
214 -219 0
4 -214 219 0
-218 220 0
-219 220 0
218 219 -220 0
220 -221 0
-93 -221 0
-220 93 221 0
220 -222 0
93 -222 0
-220 -93 222 0
-221 223 0
-222 223 0
221 222 -223 0
3 -224 0
223 -224 0
-3 -223 224 0
-3 -225 0
220 -225 0
3 -220 225 0
-224 226 0
-225 226 0
224 225 -226 0
226 -227 0
-98 -227 0
-226 98 227 0
226 -228 0
98 -228 0
-226 -98 228 0
-227 229 0
-228 229 0
227 228 -229 0
2 -230 0
229 -230 0
-2 -229 230 0
226 -231 0
-102 -231 0
-226 102 231 0
226 -232 0
102 -232 0
-226 -102 232 0
-231 233 0
-232 233 0
231 232 -233 0
101 -234 0
233 -234 0
-101 -233 234 0
-101 -235 0
226 -235 0
101 -226 235 0
-234 236 0
-235 236 0
234 235 -236 0
-2 -237 0
236 -237 0
2 -236 237 0
-230 238 0
-237 238 0
230 237 -238 0
238 -239 0
114 -239 0
115 -239 0
-238 -114 -115 239 0
-118 240 0
-120 240 0
-122 240 0
-124 240 0
118 120 122 124 -240 0
238 -241 0
240 -241 0
-238 -240 241 0
-239 242 0
-241 242 0
239 241 -242 0
248 -250 0
249 -250 0
-248 -249 250 0
248 -251 0
-249 -251 0
-248 249 251 0
248 252 0
-250 252 0
-251 252 0
-248 250 251 -252 0
-253 254 0
253 254 0
247 -255 0
252 -255 0
254 -255 0
-247 -252 -254 255 0
-247 -256 0
252 -256 0
247 -252 256 0
-255 257 0
-256 257 0
255 256 -257 0
-258 259 0
258 259 0
-260 261 0
260 261 0
263 -265 0
-264 -265 0
-263 264 265 0
263 266 0
-265 266 0
-263 265 -266 0
-267 268 0
267 268 0
268 -270 0
269 -270 0
-268 -269 270 0
-272 273 0
272 273 0
273 -275 0
-274 -275 0
-273 274 275 0
273 -277 0
274 -277 0
276 -277 0
-273 -274 -276 277 0
273 -280 0
274 -280 0
-276 -280 0
278 -280 0
279 -280 0
-273 -274 276 -278 -279 280 0
273 -282 0
274 -282 0
-276 -282 0
278 -282 0
-279 -282 0
-281 -282 0
-273 -274 276 -278 279 281 282 0
273 -284 0
274 -284 0
-276 -284 0
-278 -284 0
-283 -284 0
-273 -274 276 278 283 284 0
273 -286 0
274 -286 0
-276 -286 0
-278 -286 0
283 -286 0
285 -286 0
-273 -274 276 278 -283 -285 286 0
273 -288 0
274 -288 0
-276 -288 0
278 -288 0
-279 -288 0
281 -288 0
287 -288 0
-273 -274 276 -278 279 -281 -287 288 0
273 -290 0
274 -290 0
-276 -290 0
278 -290 0
-279 -290 0
281 -290 0
-287 -290 0
289 -290 0
-273 -274 276 -278 279 -281 287 -289 290 0
-291 292 0
291 292 0
273 -294 0
274 -294 0
-276 -294 0
-278 -294 0
283 -294 0
-285 -294 0
292 -294 0
293 -294 0
-273 -274 276 278 -283 285 -292 -293 294 0
273 -295 0
274 -295 0
-276 -295 0
-278 -295 0
283 -295 0
-285 -295 0
292 -295 0
-293 -295 0
-273 -274 276 278 -283 285 -292 293 295 0
296 -298 0
297 -298 0
-296 -297 298 0
296 -299 0
-297 -299 0
-296 297 299 0
296 300 0
-298 300 0
-299 300 0
-296 298 299 -300 0
273 -301 0
274 -301 0
-276 -301 0
278 -301 0
-279 -301 0
281 -301 0
-287 -301 0
-289 -301 0
300 -301 0
-273 -274 276 -278 279 -281 287 289 -300 301 0
-275 302 0
-277 302 0
-280 302 0
-282 302 0
-284 302 0
-286 302 0
-288 302 0
-290 302 0
-294 302 0
-295 302 0
-301 302 0
275 277 280 282 284 286 288 290 294 295 301 -302 0
268 -303 0
-269 -303 0
-271 -303 0
302 -303 0
-268 269 271 -302 303 0
268 -305 0
-269 -305 0
271 -305 0
-304 -305 0
-268 269 -271 304 305 0
268 -307 0
-269 -307 0
271 -307 0
304 -307 0
-306 -307 0
-268 269 -271 -304 306 307 0
268 -308 0
-269 -308 0
271 -308 0
304 -308 0
306 -308 0
-268 269 -271 -304 -306 308 0
-303 309 0
-305 309 0
-307 309 0
-308 309 0
303 305 307 308 -309 0
309 -311 0
310 -311 0
-309 -310 311 0
309 -312 0
-310 -312 0
-309 310 312 0
-270 313 0
-311 313 0
-312 313 0
270 311 312 -313 0
-314 315 0
314 315 0
262 -317 0
266 -317 0
313 -317 0
315 -317 0
316 -317 0
-262 -266 -313 -315 -316 317 0
-318 319 0
318 319 0
262 -320 0
266 -320 0
313 -320 0
315 -320 0
-316 -320 0
319 -320 0
-262 -266 -313 -315 316 -319 320 0
-317 321 0
-320 321 0
317 320 -321 0
321 -323 0
322 -323 0
-321 -322 323 0
321 -324 0
-322 -324 0
-321 322 324 0
262 325 0
-323 325 0
-324 325 0
-262 323 324 -325 0
246 -326 0
257 -326 0
259 -326 0
261 -326 0
325 -326 0
-246 -257 -259 -261 -325 326 0
-246 -327 0
257 -327 0
259 -327 0
261 -327 0
246 -257 -259 -261 327 0
-326 328 0
-327 328 0
326 327 -328 0
329 330 0
-329 330 0
245 -331 0
328 -331 0
330 -331 0
-245 -328 -330 331 0
-245 -332 0
328 -332 0
245 -328 332 0
-331 333 0
-332 333 0
331 332 -333 0
334 335 0
-334 335 0
244 -336 0
333 -336 0
335 -336 0
-244 -333 -335 336 0
-244 -337 0
333 -337 0
244 -333 337 0
-336 338 0
-337 338 0
336 337 -338 0
339 340 0
-339 340 0
243 -341 0
338 -341 0
340 -341 0
-243 -338 -340 341 0
343 344 0
-343 344 0
342 -345 0
338 -345 0
344 -345 0
-342 -338 -344 345 0
-342 -346 0
338 -346 0
342 -338 346 0
-345 347 0
-346 347 0
345 346 -347 0
-243 -348 0
347 -348 0
243 -347 348 0
-341 349 0
-348 349 0
341 348 -349 0
350 -352 0
351 -352 0
-350 -351 352 0
350 -353 0
-351 -353 0
-350 351 353 0
-352 354 0
-353 354 0
352 353 -354 0
354 -356 0
355 -356 0
-354 -355 356 0
354 -357 0
-355 -357 0
-354 355 357 0
-356 358 0
-357 358 0
356 357 -358 0
358 -361 0
-359 -361 0
360 -361 0
-358 359 -360 361 0
358 -362 0
-359 -362 0
-360 -362 0
-358 359 360 362 0
358 -364 0
359 -364 0
363 -364 0
-358 -359 -363 364 0
358 -365 0
359 -365 0
-363 -365 0
-358 -359 363 365 0
-361 366 0
-362 366 0
-364 366 0
-365 366 0
361 362 364 365 -366 0
366 -368 0
367 -368 0
-366 -367 368 0
366 -369 0
-367 -369 0
-366 367 369 0
-368 370 0
-369 370 0
368 369 -370 0
370 -372 0
371 -372 0
-370 -371 372 0
370 -374 0
-371 -374 0
373 -374 0
-370 371 -373 374 0
370 -376 0
-371 -376 0
-373 -376 0
375 -376 0
-370 371 373 -375 376 0
370 -378 0
-371 -378 0
-373 -378 0
-375 -378 0
377 -378 0
-370 371 373 375 -377 378 0
370 -381 0
-371 -381 0
-373 -381 0
-375 -381 0
-377 -381 0
379 -381 0
380 -381 0
-370 371 373 375 377 -379 -380 381 0
370 -382 0
-371 -382 0
-373 -382 0
-375 -382 0
-377 -382 0
379 -382 0
-380 -382 0
-370 371 373 375 377 -379 380 382 0
-381 383 0
-382 383 0
381 382 -383 0
383 -385 0
384 -385 0
-383 -384 385 0
383 -386 0
-384 -386 0
-383 384 386 0
-385 387 0
-386 387 0
385 386 -387 0
387 -389 0
388 -389 0
-387 -388 389 0
370 -391 0
-371 -391 0
-373 -391 0
-375 -391 0
-377 -391 0
-379 -391 0
390 -391 0
-370 371 373 375 377 379 -390 391 0
370 -392 0
-371 -392 0
-373 -392 0
-375 -392 0
-377 -392 0
-379 -392 0
-390 -392 0
-370 371 373 375 377 379 390 392 0
-391 393 0
-392 393 0
391 392 -393 0
393 -395 0
394 -395 0
-393 -394 395 0
393 -396 0
-394 -396 0
-393 394 396 0
-395 397 0
-396 397 0
395 396 -397 0
397 -399 0
398 -399 0
-397 -398 399 0
387 -400 0
-388 -400 0
-387 388 400 0
397 -401 0
-398 -401 0
-397 398 401 0
-389 402 0
-399 402 0
-400 402 0
-401 402 0
389 399 400 401 -402 0
402 -404 0
-403 -404 0
-402 403 404 0
402 -406 0
403 -406 0
405 -406 0
-402 -403 -405 406 0
402 -407 0
403 -407 0
-405 -407 0
-402 -403 405 407 0
350 408 0
-372 408 0
-374 408 0
-376 408 0
-378 408 0
-404 408 0
-406 408 0
-407 408 0
-350 372 374 376 378 404 406 407 -408 0
349 -409 0
408 -409 0
-349 -408 409 0
-253 410 0
253 410 0
247 -411 0
410 -411 0
-247 -410 411 0
-411 412 0
247 412 0
411 -247 -412 0
412 -413 0
-262 -413 0
-412 262 413 0
412 -414 0
268 -414 0
269 -414 0
-412 -268 -269 414 0
412 -415 0
268 -415 0
-269 -415 0
271 -415 0
304 -415 0
-306 -415 0
-412 -268 269 -271 -304 306 415 0
412 -416 0
268 -416 0
-269 -416 0
271 -416 0
304 -416 0
306 -416 0
-412 -268 269 -271 -304 -306 416 0
412 -417 0
268 -417 0
-269 -417 0
271 -417 0
-304 -417 0
-412 -268 269 -271 304 417 0
412 -418 0
272 -418 0
-412 -272 418 0
412 -419 0
-272 -419 0
-412 272 419 0
-418 420 0
-419 420 0
418 419 -420 0
-275 421 0
-277 421 0
-280 421 0
-282 421 0
-284 421 0
-286 421 0
-288 421 0
-290 421 0
275 277 280 282 284 286 288 290 -421 0
420 -422 0
421 -422 0
-420 -421 422 0
420 -423 0
273 -423 0
274 -423 0
-276 -423 0
278 -423 0
-279 -423 0
281 -423 0
-287 -423 0
-289 -423 0
300 -423 0
-420 -273 -274 276 -278 279 -281 287 289 -300 423 0
-294 424 0
-295 424 0
294 295 -424 0
420 -425 0
424 -425 0
-420 -424 425 0
-422 426 0
-423 426 0
-425 426 0
422 423 425 -426 0
426 -427 0
268 -427 0
-269 -427 0
-271 -427 0
302 -427 0
-426 -268 269 271 -302 427 0
-415 428 0
-416 428 0
-417 428 0
-427 428 0
415 416 417 427 -428 0
428 -429 0
309 -429 0
310 -429 0
-428 -309 -310 429 0
428 -430 0
309 -430 0
-310 -430 0
-428 -309 310 430 0
-414 431 0
-429 431 0
-430 431 0
414 429 430 -431 0
431 -432 0
262 -432 0
266 -432 0
313 -432 0
315 -432 0
316 -432 0
-431 -262 -266 -313 -315 -316 432 0
431 -433 0
262 -433 0
266 -433 0
313 -433 0
315 -433 0
-316 -433 0
319 -433 0
-431 -262 -266 -313 -315 316 -319 433 0
-432 434 0
-433 434 0
432 433 -434 0
-323 435 0
-324 435 0
323 324 -435 0
434 -436 0
435 -436 0
-434 -435 436 0
-413 437 0
-436 437 0
413 436 -437 0
246 -438 0
437 -438 0
-246 -437 438 0
-246 -439 0
412 -439 0
246 -412 439 0
-438 440 0
-439 440 0
438 439 -440 0
440 -441 0
-329 -441 0
-440 329 441 0
440 -442 0
329 -442 0
-440 -329 442 0
-441 443 0
-442 443 0
441 442 -443 0
245 -444 0
443 -444 0
-245 -443 444 0
-245 -445 0
440 -445 0
245 -440 445 0
-444 446 0
-445 446 0
444 445 -446 0
446 -447 0
-334 -447 0
-446 334 447 0
446 -448 0
334 -448 0
-446 -334 448 0
-447 449 0
-448 449 0
447 448 -449 0
244 -450 0
449 -450 0
-244 -449 450 0
-244 -451 0
446 -451 0
244 -446 451 0
-450 452 0
-451 452 0
450 451 -452 0
452 -453 0
-339 -453 0
-452 339 453 0
452 -454 0
339 -454 0
-452 -339 454 0
-453 455 0
-454 455 0
453 454 -455 0
243 -456 0
455 -456 0
-243 -455 456 0
452 -457 0
-343 -457 0
-452 343 457 0
452 -458 0
343 -458 0
-452 -343 458 0
-457 459 0
-458 459 0
457 458 -459 0
342 -460 0
459 -460 0
-342 -459 460 0
-342 -461 0
452 -461 0
342 -452 461 0
-460 462 0
-461 462 0
460 461 -462 0
-243 -463 0
462 -463 0
243 -462 463 0
-456 464 0
-463 464 0
456 463 -464 0
464 -465 0
-350 -465 0
-464 350 465 0
464 -466 0
350 -466 0
351 -466 0
-464 -350 -351 466 0
464 -467 0
350 -467 0
-351 -467 0
-464 -350 351 467 0
-466 468 0
-467 468 0
466 467 -468 0
468 -469 0
354 -469 0
355 -469 0
-468 -354 -355 469 0
468 -470 0
354 -470 0
-355 -470 0
-468 -354 355 470 0
-469 471 0
-470 471 0
469 470 -471 0
471 -472 0
366 -472 0
367 -472 0
-471 -366 -367 472 0
471 -473 0
366 -473 0
-367 -473 0
-471 -366 367 473 0
-472 474 0
-473 474 0
472 473 -474 0
-372 475 0
-374 475 0
-376 475 0
-378 475 0
372 374 376 378 -475 0
474 -476 0
475 -476 0
-474 -475 476 0
474 -477 0
370 -477 0
-371 -477 0
-373 -477 0
-375 -477 0
-377 -477 0
-379 -477 0
390 -477 0
-474 -370 371 373 375 377 379 -390 477 0
474 -478 0
370 -478 0
-371 -478 0
-373 -478 0
-375 -478 0
-377 -478 0
-379 -478 0
-390 -478 0
-474 -370 371 373 375 377 379 390 478 0
-477 479 0
-478 479 0
477 478 -479 0
479 -480 0
393 -480 0
394 -480 0
-479 -393 -394 480 0
479 -481 0
393 -481 0
-394 -481 0
-479 -393 394 481 0
-480 482 0
-481 482 0
480 481 -482 0
482 -483 0
397 -483 0
398 -483 0
-482 -397 -398 483 0
482 -484 0
397 -484 0
-398 -484 0
-482 -397 398 484 0
474 -485 0
370 -485 0
-371 -485 0
-373 -485 0
-375 -485 0
-377 -485 0
379 -485 0
380 -485 0
-474 -370 371 373 375 377 -379 -380 485 0
474 -486 0
370 -486 0
-371 -486 0
-373 -486 0
-375 -486 0
-377 -486 0
379 -486 0
-380 -486 0
-474 -370 371 373 375 377 -379 380 486 0
-485 487 0
-486 487 0
485 486 -487 0
487 -488 0
383 -488 0
384 -488 0
-487 -383 -384 488 0
487 -489 0
383 -489 0
-384 -489 0
-487 -383 384 489 0
-488 490 0
-489 490 0
488 489 -490 0
490 -491 0
387 -491 0
388 -491 0
-490 -387 -388 491 0
490 -492 0
387 -492 0
-388 -492 0
-490 -387 388 492 0
-483 493 0
-484 493 0
-491 493 0
-492 493 0
483 484 491 492 -493 0
-406 494 0
-407 494 0
406 407 -494 0
-404 495 0
-494 495 0
404 494 -495 0
493 -496 0
495 -496 0
-493 -495 496 0
-465 497 0
-476 497 0
-496 497 0
465 476 496 -497 0
-253 498 0
253 498 0
247 -499 0
498 -499 0
-247 -498 499 0
-499 500 0
247 500 0
499 -247 -500 0
500 -501 0
-262 -501 0
-500 262 501 0
500 -502 0
268 -502 0
269 -502 0
-500 -268 -269 502 0
500 -503 0
268 -503 0
-269 -503 0
271 -503 0
304 -503 0
-306 -503 0
-500 -268 269 -271 -304 306 503 0
500 -504 0
268 -504 0
-269 -504 0
271 -504 0
304 -504 0
306 -504 0
-500 -268 269 -271 -304 -306 504 0
500 -505 0
268 -505 0
-269 -505 0
271 -505 0
-304 -505 0
-500 -268 269 -271 304 505 0
500 -506 0
272 -506 0
-500 -272 506 0
500 -507 0
-272 -507 0
-500 272 507 0
-506 508 0
-507 508 0
506 507 -508 0
-275 509 0
-277 509 0
-280 509 0
-282 509 0
-284 509 0
-286 509 0
-288 509 0
-290 509 0
275 277 280 282 284 286 288 290 -509 0
508 -510 0
509 -510 0
-508 -509 510 0
508 -511 0
273 -511 0
274 -511 0
-276 -511 0
278 -511 0
-279 -511 0
281 -511 0
-287 -511 0
-289 -511 0
300 -511 0
-508 -273 -274 276 -278 279 -281 287 289 -300 511 0
508 -512 0
424 -512 0
-508 -424 512 0
-510 513 0
-511 513 0
-512 513 0
510 511 512 -513 0
513 -514 0
268 -514 0
-269 -514 0
-271 -514 0
302 -514 0
-513 -268 269 271 -302 514 0
-503 515 0
-504 515 0
-505 515 0
-514 515 0
503 504 505 514 -515 0
515 -516 0
309 -516 0
310 -516 0
-515 -309 -310 516 0
515 -517 0
309 -517 0
-310 -517 0
-515 -309 310 517 0
-502 518 0
-516 518 0
-517 518 0
502 516 517 -518 0
518 -519 0
262 -519 0
266 -519 0
313 -519 0
315 -519 0
316 -519 0
-518 -262 -266 -313 -315 -316 519 0
518 -520 0
262 -520 0
266 -520 0
313 -520 0
315 -520 0
-316 -520 0
319 -520 0
-518 -262 -266 -313 -315 316 -319 520 0
-519 521 0
-520 521 0
519 520 -521 0
521 -522 0
435 -522 0
-521 -435 522 0
-501 523 0
-522 523 0
501 522 -523 0
246 -524 0
523 -524 0
-246 -523 524 0
-246 -525 0
500 -525 0
246 -500 525 0
-524 526 0
-525 526 0
524 525 -526 0
526 -527 0
-329 -527 0
-526 329 527 0
526 -528 0
329 -528 0
-526 -329 528 0
-527 529 0
-528 529 0
527 528 -529 0
245 -530 0
529 -530 0
-245 -529 530 0
-245 -531 0
526 -531 0
245 -526 531 0
-530 532 0
-531 532 0
530 531 -532 0
532 -533 0
-334 -533 0
-532 334 533 0
532 -534 0
334 -534 0
-532 -334 534 0
-533 535 0
-534 535 0
533 534 -535 0
244 -536 0
535 -536 0
-244 -535 536 0
-244 -537 0
532 -537 0
244 -532 537 0
-536 538 0
-537 538 0
536 537 -538 0
538 -539 0
-339 -539 0
-538 339 539 0
538 -540 0
339 -540 0
-538 -339 540 0
-539 541 0
-540 541 0
539 540 -541 0
243 -542 0
541 -542 0
-243 -541 542 0
538 -543 0
-343 -543 0
-538 343 543 0
538 -544 0
343 -544 0
-538 -343 544 0
-543 545 0
-544 545 0
543 544 -545 0
342 -546 0
545 -546 0
-342 -545 546 0
-342 -547 0
538 -547 0
342 -538 547 0
-546 548 0
-547 548 0
546 547 -548 0
-243 -549 0
548 -549 0
243 -548 549 0
-542 550 0
-549 550 0
542 549 -550 0
550 -551 0
-350 -551 0
-550 350 551 0
550 -552 0
350 -552 0
351 -552 0
-550 -350 -351 552 0
550 -553 0
350 -553 0
-351 -553 0
-550 -350 351 553 0
-552 554 0
-553 554 0
552 553 -554 0
554 -555 0
354 -555 0
355 -555 0
-554 -354 -355 555 0
554 -556 0
354 -556 0
-355 -556 0
-554 -354 355 556 0
-555 557 0
-556 557 0
555 556 -557 0
557 -558 0
366 -558 0
367 -558 0
-557 -366 -367 558 0
557 -559 0
366 -559 0
-367 -559 0
-557 -366 367 559 0
-558 560 0
-559 560 0
558 559 -560 0
-372 561 0
-374 561 0
-376 561 0
-378 561 0
372 374 376 378 -561 0
560 -562 0
561 -562 0
-560 -561 562 0
560 -563 0
370 -563 0
-371 -563 0
-373 -563 0
-375 -563 0
-377 -563 0
-379 -563 0
390 -563 0
-560 -370 371 373 375 377 379 -390 563 0
560 -564 0
370 -564 0
-371 -564 0
-373 -564 0
-375 -564 0
-377 -564 0
-379 -564 0
-390 -564 0
-560 -370 371 373 375 377 379 390 564 0
-563 565 0
-564 565 0
563 564 -565 0
565 -566 0
393 -566 0
394 -566 0
-565 -393 -394 566 0
565 -567 0
393 -567 0
-394 -567 0
-565 -393 394 567 0
-566 568 0
-567 568 0
566 567 -568 0
568 -569 0
397 -569 0
398 -569 0
-568 -397 -398 569 0
568 -570 0
397 -570 0
-398 -570 0
-568 -397 398 570 0
560 -571 0
370 -571 0
-371 -571 0
-373 -571 0
-375 -571 0
-377 -571 0
379 -571 0
380 -571 0
-560 -370 371 373 375 377 -379 -380 571 0
560 -572 0
370 -572 0
-371 -572 0
-373 -572 0
-375 -572 0
-377 -572 0
379 -572 0
-380 -572 0
-560 -370 371 373 375 377 -379 380 572 0
-571 573 0
-572 573 0
571 572 -573 0
573 -574 0
383 -574 0
384 -574 0
-573 -383 -384 574 0
573 -575 0
383 -575 0
-384 -575 0
-573 -383 384 575 0
-574 576 0
-575 576 0
574 575 -576 0
576 -577 0
387 -577 0
388 -577 0
-576 -387 -388 577 0
576 -578 0
387 -578 0
-388 -578 0
-576 -387 388 578 0
-569 579 0
-570 579 0
-577 579 0
-578 579 0
569 570 577 578 -579 0
-404 580 0
-494 580 0
404 494 -580 0
579 -581 0
580 -581 0
-579 -580 581 0
-551 582 0
-562 582 0
-581 582 0
551 562 581 -582 0
-497 -185 -583 0
497 185 -583 0
-497 185 583 0
497 -185 583 0
-582 -242 -584 0
582 242 -584 0
-582 242 584 0
582 -242 584 0
-583 -585 0
-584 -585 0
409 -585 0
583 584 -409 585 0
-126 585 0
